n_res = 4;
rcap = [22, 20, 118, 104];
rtype = [1, 1, 2, 2];
n_tasks = 18;
modes = [ {1, 2, 3}, {4, 5, 6}, {7, 8, 9}, {10, 11, 12}, {13, 14, 15}, {16, 17, 18}, {19, 20, 21}, {22, 23, 24}, {25, 26, 27}, {28, 29, 30}, {31, 32, 33}, {34, 35, 36}, {37, 38, 39}, {40, 41, 42}, {43, 44, 45}, {46, 47, 48}, {49, 50, 51}, {52, 53, 54} ];
succ = [ {4}, {5, 9, 13}, {17, 18}, {6, 10, 13}, {7, 10, 14}, {7, 8}, {11, 15, 16}, {9, 12}, {14}, {11, 15}, {12}, {17, 18}, {14}, {15, 16}, {17, 18}, {}, {}, {} ];
n_opt = 54;
dur = [2, 4, 7, 4, 5, 7, 3, 6, 8, 2, 8, 10, 5, 5, 7, 2, 4, 5, 2, 10, 10, 5, 5, 6, 2, 4, 5, 1, 8, 10, 1, 3, 4, 1, 4, 8, 2, 4, 7, 3, 5, 7, 2, 6, 10, 4, 6, 7, 2, 4, 4, 1, 1, 8];
rreq = [|  7,  6,  6, 10,  8,  3,  7,  7,  7, 10,  8,  7,  9,  8,  5,  9,  5,  4,  4,  2,  1,  5,  5,  4,  4,  4,  3,  2,  2,  1,  5,  4,  4,  9,  5,  2,  6,  5,  3,  6,  6,  6,  5,  4,  2,  8,  8,  5,  8,  3,  6,  7,  6,  4
        |  8,  5,  2,  4,  4,  3,  5,  3,  2,  7,  5,  5,  2,  2,  2, 10,  9,  9,  3,  1,  3,  8,  7,  7,  8,  7,  5,  8,  5,  4,  7,  6,  2,  8,  8,  6,  7,  7,  7,  6,  6,  5,  6,  5,  5,  9,  9,  9,  6,  6,  5,  7,  8,  6
        |  6,  5,  4,  4,  2,  2,  9,  9,  8,  4,  3,  3,  3,  4,  3,  8,  7,  7, 10,  8,  8,  5,  8,  5, 10,  8,  7,  3,  2,  2,  9,  8,  7,  6,  3,  1,  8,  7,  4, 10, 10, 10,  4,  3,  2,  6,  4,  3,  4,  4,  3,  5,  5,  5
        |  4,  2,  1,  2,  2,  2,  4,  4,  3, 10,  7,  4,  2,  2,  2,  5,  3,  2,  5,  4,  4,  8,  8,  8,  3,  3,  3,  9,  5,  5,  7,  7,  4,  7,  3,  2,  7,  7,  7,  4,  3,  2,  7,  6,  5, 10,  9,  9,  4,  4,  3,  6,  5,  2 |];
